c uprop, v00.0, 
c reading from data/prog747.c.cnf
c done reading: 0.003213
p cnf 201 991
-106 -127 0
-106 -123 0
106 123 127 0
-100 123 127 0
-100 -123 -127 0
100 123 -127 0
100 -123 127 0
106 -118 0
-116 -118 0
-106 116 118 0
-106 -111 116 0
106 -111 -116 0
106 111 116 0
-106 111 -116 0
-107 118 0
-104 -107 0
104 107 -118 0
-102 104 -118 0
-102 -104 118 0
102 104 118 0
102 -104 -118 0
-101 107 0
-98 -101 0
98 101 -107 0
98 -107 -125 0
-98 107 -125 0
98 107 125 0
-98 -107 125 0
101 -129 0
-120 -129 0
-101 120 129 0
-101 120 -130 0
101 -120 -130 0
101 120 130 0
-101 -120 130 0
129 -131 0
-113 -131 0
113 -129 131 0
113 -129 -132 0
-113 129 -132 0
113 129 132 0
-113 -129 132 0
131 -133 0
-109 -133 0
109 -131 133 0
109 -131 -134 0
-109 131 -134 0
109 131 134 0
-109 -131 134 0
123 -135 0
127 -135 0
-123 -127 135 0
-123 -127 -136 0
123 127 -136 0
-123 127 136 0
123 -127 136 0
-116 -123 137 0
-116 -135 137 0
-123 -135 137 0
116 123 -137 0
116 135 -137 0
123 135 -137 0
116 -137 -138 0
123 -137 -138 0
135 -137 -138 0
-116 137 138 0
-123 137 138 0
-135 137 138 0
-116 -123 -135 138 0
116 123 135 -138 0
-104 -116 139 0
-104 -137 139 0
-116 -137 139 0
104 116 -139 0
104 137 -139 0
116 137 -139 0
104 -139 -140 0
116 -139 -140 0
137 -139 -140 0
-104 139 140 0
-116 139 140 0
-137 139 140 0
-104 -116 -137 140 0
104 116 137 -140 0
-98 -104 141 0
-98 -139 141 0
-104 -139 141 0
98 104 -141 0
98 139 -141 0
104 139 -141 0
-96 98 -141 0
-96 104 -141 0
-96 139 -141 0
96 -98 141 0
96 -104 141 0
96 -139 141 0
96 -98 -104 -139 0
-96 98 104 139 0
95 -98 -120 0
95 -120 -141 0
95 -98 -141 0
-95 98 120 0
-95 120 141 0
-95 98 141 0
-94 -95 120 0
-94 -95 98 0
-94 -95 141 0
94 95 -120 0
94 95 -98 0
94 95 -141 0
94 -98 -120 -141 0
-94 98 120 141 0
93 -113 -120 0
93 -95 -113 0
93 -95 -120 0
-93 113 120 0
-93 95 113 0
-93 95 120 0
-92 -93 113 0
-92 -93 120 0
-92 -93 95 0
92 93 -113 0
92 93 -120 0
92 93 -95 0
92 -95 -113 -120 0
-92 95 113 120 0
91 -109 -113 0
91 -93 -109 0
91 -93 -113 0
-91 109 113 0
-91 93 109 0
-91 93 113 0
-91 109 -126 0
-91 113 -126 0
-91 93 -126 0
91 -109 126 0
91 -113 126 0
91 -93 126 0
-93 -109 -113 126 0
93 109 113 -126 0
109 -122 0
91 -122 0
-91 -109 122 0
-91 -109 -115 0
91 109 -115 0
91 -109 115 0
-91 109 115 0
-103 140 0
-103 127 0
103 -127 -140 0
-97 -127 -140 0
-97 127 140 0
97 127 -140 0
97 -127 140 0
-96 119 -123 0
-96 -103 119 0
-103 119 -123 0
96 -119 123 0
96 103 -119 0
103 -119 123 0
96 -112 -119 0
-112 -119 123 0
103 -112 -119 0
-96 112 119 0
112 119 -123 0
-103 112 119 0
-96 -103 112 -123 0
96 103 -112 123 0
-94 108 -116 0
-94 108 -119 0
108 -116 -119 0
94 -108 116 0
94 -108 119 0
-108 116 119 0
-90 94 -108 0
-90 -108 116 0
-90 -108 119 0
90 -94 108 0
90 108 -116 0
90 108 -119 0
90 -94 -116 -119 0
-90 94 116 119 0
89 -92 -104 0
89 -92 -108 0
89 -104 -108 0
-89 92 104 0
-89 92 108 0
-89 104 108 0
-88 -89 92 0
-88 -89 104 0
-88 -89 108 0
88 89 -92 0
88 89 -104 0
88 89 -108 0
88 -92 -104 -108 0
-88 92 104 108 0
87 -98 -126 0
87 -89 -126 0
87 -89 -98 0
-87 98 126 0
-87 89 126 0
-87 89 98 0
-86 -87 126 0
-86 -87 98 0
-86 -87 89 0
86 87 -126 0
86 87 -98 0
86 87 -89 0
86 -89 -98 -126 0
-86 89 98 126 0
85 -115 -120 0
85 -87 -115 0
85 -87 -120 0
-85 115 120 0
-85 87 115 0
-85 87 120 0
-84 -85 115 0
-84 -85 120 0
-84 -85 87 0
84 85 -115 0
84 85 -120 0
84 85 -87 0
84 -87 -115 -120 0
-84 87 115 120 0
83 -113 -122 0
83 -85 -122 0
83 -85 -113 0
-83 113 122 0
-83 85 122 0
-83 85 113 0
-82 -83 122 0
-82 -83 113 0
-82 -83 85 0
82 83 -122 0
82 83 -113 0
82 83 -85 0
82 -85 -113 -122 0
-82 85 113 122 0
-81 109 0
-81 83 0
81 -83 -109 0
-80 -83 -109 0
-80 83 109 0
80 83 -109 0
80 -83 109 0
-79 -127 0
-79 -136 0
79 127 136 0
-78 127 136 0
-78 -127 -136 0
78 -127 136 0
78 127 -136 0
-77 79 0
-77 -138 0
77 -79 138 0
-76 -79 138 0
-76 79 -138 0
76 79 138 0
76 -79 -138 0
-75 77 0
-75 -97 0
75 -77 97 0
-77 97 -142 0
77 -97 -142 0
77 97 142 0
-77 -97 142 0
75 -143 0
-112 -143 0
-75 112 143 0
-75 112 -144 0
75 -112 -144 0
75 112 144 0
-75 -112 144 0
143 -145 0
-90 -145 0
90 -143 145 0
90 -143 -146 0
-90 143 -146 0
90 143 146 0
-90 -143 146 0
145 -147 0
-88 -147 0
88 -145 147 0
88 -145 -148 0
-88 145 -148 0
88 145 148 0
-88 -145 148 0
147 -149 0
-86 -149 0
86 -147 149 0
86 -147 -150 0
-86 147 -150 0
86 147 150 0
-86 -147 150 0
149 -151 0
-84 -151 0
84 -149 151 0
84 -149 -152 0
-84 149 -152 0
84 149 152 0
-84 -149 152 0
151 -153 0
-82 -153 0
82 -151 153 0
82 -151 -154 0
-82 151 -154 0
82 151 154 0
-82 -151 154 0
153 -155 0
-80 -155 0
80 -153 155 0
80 -153 -156 0
-80 153 -156 0
80 153 156 0
-80 -153 156 0
155 -157 0
-81 -157 0
81 -155 157 0
81 -155 -158 0
-81 155 -158 0
81 155 158 0
-81 -155 158 0
-159 -161 0
-161 -162 0
159 161 162 0
159 162 -164 0
-159 -162 -164 0
-159 162 164 0
159 -162 164 0
161 -165 0
-165 -166 0
-161 165 166 0
-161 166 -168 0
161 -166 -168 0
161 166 168 0
-161 -166 168 0
165 -169 0
-169 -170 0
-165 169 170 0
-165 170 -172 0
165 -170 -172 0
165 170 172 0
-165 -170 172 0
169 -173 0
-173 -174 0
-169 173 174 0
-169 174 -176 0
169 -174 -176 0
169 174 176 0
-169 -174 176 0
173 -177 0
-177 -178 0
-173 177 178 0
-173 178 -180 0
173 -178 -180 0
173 178 180 0
-173 -178 180 0
177 -181 0
-181 -182 0
-177 181 182 0
-177 182 -184 0
177 -182 -184 0
177 182 184 0
-177 -182 184 0
181 -185 0
-185 -186 0
-181 185 186 0
-181 186 -188 0
181 -186 -188 0
181 186 188 0
-181 -186 188 0
162 -189 0
159 -189 0
-159 -162 189 0
-159 -162 -190 0
159 162 -190 0
159 -162 190 0
-159 162 190 0
-162 -166 191 0
-166 -189 191 0
-162 -189 191 0
162 166 -191 0
166 189 -191 0
162 189 -191 0
166 -191 -192 0
162 -191 -192 0
189 -191 -192 0
-166 191 192 0
-162 191 192 0
-189 191 192 0
-162 -166 -189 192 0
162 166 189 -192 0
-166 -170 193 0
-170 -191 193 0
-166 -191 193 0
166 170 -193 0
170 191 -193 0
166 191 -193 0
170 -193 -194 0
166 -193 -194 0
191 -193 -194 0
-170 193 194 0
-166 193 194 0
-191 193 194 0
-166 -170 -191 194 0
166 170 191 -194 0
-170 -174 195 0
-174 -193 195 0
-170 -193 195 0
170 174 -195 0
174 193 -195 0
170 193 -195 0
174 -195 -196 0
170 -195 -196 0
193 -195 -196 0
-174 195 196 0
-170 195 196 0
-193 195 196 0
-170 -174 -193 196 0
170 174 193 -196 0
-174 -178 197 0
-178 -195 197 0
-174 -195 197 0
174 178 -197 0
178 195 -197 0
174 195 -197 0
178 -197 -198 0
174 -197 -198 0
195 -197 -198 0
-178 197 198 0
-174 197 198 0
-195 197 198 0
-174 -178 -195 198 0
174 178 195 -198 0
-178 -182 199 0
-182 -197 199 0
-178 -197 199 0
178 182 -199 0
182 197 -199 0
178 197 -199 0
182 -199 -200 0
178 -199 -200 0
197 -199 -200 0
-182 199 200 0
-178 199 200 0
-197 199 200 0
-178 -182 -197 200 0
178 182 197 -200 0
-182 -186 201 0
-186 -199 201 0
-182 -199 201 0
182 186 -201 0
186 199 -201 0
182 199 -201 0
-128 186 -201 0
-128 182 -201 0
-128 199 -201 0
128 -186 201 0
128 -182 201 0
128 -199 201 0
128 -182 -186 -199 0
-128 182 186 199 0
-124 186 0
-124 201 0
124 -186 -201 0
-117 -186 -201 0
-117 186 201 0
117 -186 201 0
117 186 -201 0
-105 192 0
-105 159 0
105 -159 -192 0
-99 -159 -192 0
-99 159 192 0
99 159 -192 0
99 -159 192 0
121 -162 -194 0
-105 121 -194 0
-105 121 -162 0
-121 162 194 0
105 -121 194 0
105 -121 162 0
-114 -121 194 0
-114 -121 162 0
105 -114 -121 0
114 121 -194 0
114 121 -162 0
-105 114 121 0
-105 114 -162 -194 0
105 -114 162 194 0
110 -166 -196 0
110 -121 -196 0
110 -121 -166 0
-110 166 196 0
-110 121 196 0
-110 121 166 0
-110 -160 196 0
-110 -160 166 0
-110 121 -160 0
110 160 -196 0
110 160 -166 0
110 -121 160 0
-121 160 -166 -196 0
121 -160 166 196 0
163 -170 -198 0
-110 163 -198 0
-110 163 -170 0
-163 170 198 0
110 -163 198 0
110 -163 170 0
-163 -167 198 0
-163 -167 170 0
110 -163 -167 0
163 167 -198 0
163 167 -170 0
-110 163 167 0
-110 167 -170 -198 0
110 -167 170 198 0
171 -174 -200 0
-163 171 -200 0
-163 171 -174 0
-171 174 200 0
163 -171 200 0
163 -171 174 0
-171 -175 200 0
-171 174 -175 0
163 -171 -175 0
171 175 -200 0
171 -174 175 0
-163 171 175 0
-163 -174 175 -200 0
163 174 -175 200 0
-128 -178 179 0
-128 -171 179 0
-171 -178 179 0
128 178 -179 0
128 171 -179 0
171 178 -179 0
128 -179 -183 0
178 -179 -183 0
171 -179 -183 0
-128 179 183 0
-178 179 183 0
-171 179 183 0
-128 -171 -178 183 0
128 171 178 -183 0
-117 -182 187 0
-117 -179 187 0
-179 -182 187 0
117 182 -187 0
117 179 -187 0
179 182 -187 0
-74 117 -187 0
-74 182 -187 0
-74 179 -187 0
74 -117 187 0
74 -182 187 0
74 -179 187 0
74 -117 -179 -182 0
-74 117 179 182 0
73 -124 -186 0
73 -124 -187 0
73 -186 -187 0
-73 124 186 0
-73 124 187 0
-73 186 187 0
-72 -73 124 0
-72 -73 186 0
-72 -73 187 0
72 73 -124 0
72 73 -186 0
72 73 -187 0
72 -124 -186 -187 0
-72 124 186 187 0
-71 114 0
-71 159 0
71 -114 -159 0
-70 -114 -159 0
-70 114 159 0
70 -114 159 0
70 114 -159 0
69 -160 -162 0
69 -71 -160 0
69 -71 -162 0
-69 160 162 0
-69 71 160 0
-69 71 162 0
-68 -69 160 0
-68 -69 162 0
-68 -69 71 0
68 69 -160 0
68 69 -162 0
68 69 -71 0
68 -71 -160 -162 0
-68 71 160 162 0
67 -166 -167 0
67 -69 -167 0
67 -69 -166 0
-67 166 167 0
-67 69 167 0
-67 69 166 0
-66 -67 167 0
-66 -67 166 0
-66 -67 69 0
66 67 -167 0
66 67 -166 0
66 67 -69 0
66 -69 -166 -167 0
-66 69 166 167 0
65 -170 -175 0
65 -67 -175 0
65 -67 -170 0
-65 170 175 0
-65 67 175 0
-65 67 170 0
-64 -65 175 0
-64 -65 170 0
-64 -65 67 0
64 65 -175 0
64 65 -170 0
64 65 -67 0
64 -67 -170 -175 0
-64 67 170 175 0
63 -174 -183 0
63 -65 -183 0
63 -65 -174 0
-63 174 183 0
-63 65 183 0
-63 65 174 0
-62 -63 183 0
-62 -63 174 0
-62 -63 65 0
62 63 -183 0
62 63 -174 0
62 63 -65 0
62 -65 -174 -183 0
-62 65 174 183 0
61 -74 -178 0
61 -63 -74 0
61 -63 -178 0
-61 74 178 0
-61 63 74 0
-61 63 178 0
-60 -61 74 0
-60 -61 178 0
-60 -61 63 0
60 61 -74 0
60 61 -178 0
60 61 -63 0
60 -63 -74 -178 0
-60 63 74 178 0
59 -72 -182 0
59 -61 -72 0
59 -61 -182 0
-59 72 182 0
-59 61 72 0
-59 61 182 0
-58 -59 72 0
-58 -59 182 0
-58 -59 61 0
58 59 -72 0
58 59 -182 0
58 59 -61 0
58 -61 -72 -182 0
-58 61 72 182 0
57 -73 -186 0
57 -59 -73 0
57 -59 -186 0
-57 73 186 0
-57 59 73 0
-57 59 186 0
-56 -57 73 0
-56 -57 186 0
-56 -57 59 0
56 57 -73 0
56 57 -186 0
56 57 -59 0
56 -59 -73 -186 0
-56 59 73 186 0
-55 66 0
-55 159 0
55 -66 -159 0
-54 -66 -159 0
-54 66 159 0
54 -66 159 0
54 66 -159 0
53 -64 -162 0
53 -55 -64 0
53 -55 -162 0
-53 64 162 0
-53 55 64 0
-53 55 162 0
-52 -53 64 0
-52 -53 162 0
-52 -53 55 0
52 53 -64 0
52 53 -162 0
52 53 -55 0
52 -55 -64 -162 0
-52 55 64 162 0
51 -62 -166 0
51 -53 -62 0
51 -53 -166 0
-51 62 166 0
-51 53 62 0
-51 53 166 0
-50 -51 62 0
-50 -51 166 0
-50 -51 53 0
50 51 -62 0
50 51 -166 0
50 51 -53 0
50 -53 -62 -166 0
-50 53 62 166 0
49 -60 -170 0
49 -51 -60 0
49 -51 -170 0
-49 60 170 0
-49 51 60 0
-49 51 170 0
-48 -49 60 0
-48 -49 170 0
-48 -49 51 0
48 49 -60 0
48 49 -170 0
48 49 -51 0
48 -51 -60 -170 0
-48 51 60 170 0
47 -58 -174 0
47 -49 -58 0
47 -49 -174 0
-47 58 174 0
-47 49 58 0
-47 49 174 0
-46 -47 58 0
-46 -47 174 0
-46 -47 49 0
46 47 -58 0
46 47 -174 0
46 47 -49 0
46 -49 -58 -174 0
-46 49 58 174 0
45 -56 -178 0
45 -47 -56 0
45 -47 -178 0
-45 56 178 0
-45 47 56 0
-45 47 178 0
-44 -45 56 0
-44 -45 178 0
-44 -45 47 0
44 45 -56 0
44 45 -178 0
44 45 -47 0
44 -47 -56 -178 0
-44 47 56 178 0
43 -57 -182 0
43 -45 -57 0
43 -45 -182 0
-43 57 182 0
-43 45 57 0
-43 45 182 0
-42 -43 57 0
-42 -43 182 0
-42 -43 45 0
42 43 -57 0
42 43 -182 0
42 43 -45 0
42 -45 -57 -182 0
-42 45 57 182 0
-41 186 0
-41 43 0
41 -43 -186 0
-40 -43 -186 0
-40 43 186 0
40 43 -186 0
40 -43 186 0
-39 -159 0
-39 -190 0
39 159 190 0
-38 159 190 0
-38 -159 -190 0
38 -159 190 0
38 159 -190 0
-37 39 0
-37 -99 0
37 -39 99 0
-36 -39 99 0
-36 39 -99 0
36 39 99 0
36 -39 -99 0
-35 37 0
-35 -70 0
35 -37 70 0
-34 -37 70 0
-34 37 -70 0
34 37 70 0
34 -37 -70 0
-33 35 0
-33 -68 0
33 -35 68 0
-32 -35 68 0
-32 35 -68 0
32 35 68 0
32 -35 -68 0
-31 33 0
-31 -54 0
31 -33 54 0
-30 -33 54 0
-30 33 -54 0
30 33 54 0
30 -33 -54 0
-29 31 0
-29 -52 0
29 -31 52 0
-28 -31 52 0
-28 31 -52 0
28 31 52 0
28 -31 -52 0
-27 29 0
-27 -50 0
27 -29 50 0
-26 -29 50 0
-26 29 -50 0
26 29 50 0
26 -29 -50 0
-25 27 0
-25 -48 0
25 -27 48 0
-24 -27 48 0
-24 27 -48 0
24 27 48 0
24 -27 -48 0
-23 25 0
-23 -46 0
23 -25 46 0
-22 -25 46 0
-22 25 -46 0
22 25 46 0
22 -25 -46 0
-21 23 0
-21 -44 0
21 -23 44 0
-20 -23 44 0
-20 23 -44 0
20 23 44 0
20 -23 -44 0
-19 21 0
-19 -42 0
19 -21 42 0
-18 -21 42 0
-18 21 -42 0
18 21 42 0
18 -21 -42 0
-17 19 0
-17 -40 0
17 -19 40 0
-16 -19 40 0
-16 19 -40 0
16 19 40 0
16 -19 -40 0
-15 17 0
-15 -41 0
15 -17 41 0
-14 -17 41 0
-14 17 -41 0
14 17 41 0
14 -17 -41 0
-13 127 0
-13 159 0
13 -127 -159 0
-127 159 0
127 -159 0
12 -136 -190 0
12 -13 -136 0
12 -13 -190 0
-12 136 190 0
-12 13 136 0
-12 13 190 0
-12 136 0
-12 190 0
-12 13 0
13 136 190 0
11 -99 -138 0
11 -12 -138 0
11 -12 -99 0
-11 99 138 0
-11 12 138 0
-11 12 99 0
-11 138 0
-11 99 0
-11 12 0
12 99 138 0
10 -70 -97 0
10 -11 -97 0
10 -11 -70 0
-10 70 97 0
-10 11 97 0
-10 11 70 0
-10 97 0
-10 70 0
-10 11 0
11 70 97 0
9 -68 -112 0
9 -10 -112 0
9 -10 -68 0
-9 68 112 0
-9 10 112 0
-9 10 68 0
-9 112 0
-9 68 0
-9 10 0
10 68 112 0
8 -54 -90 0
8 -9 -90 0
8 -9 -54 0
-8 54 90 0
-8 9 90 0
-8 9 54 0
-8 90 0
-8 54 0
-8 9 0
9 54 90 0
7 -52 -88 0
7 -8 -88 0
7 -8 -52 0
-7 52 88 0
-7 8 88 0
-7 8 52 0
-7 88 0
-7 52 0
-7 8 0
8 52 88 0
6 -50 -86 0
6 -7 -86 0
6 -7 -50 0
-6 50 86 0
-6 7 86 0
-6 7 50 0
-6 86 0
-6 50 0
-6 7 0
7 50 86 0
5 -48 -84 0
5 -6 -84 0
5 -6 -48 0
-5 48 84 0
-5 6 84 0
-5 6 48 0
5 -84 0
5 -48 0
5 -6 0
-6 -48 -84 0
4 -46 -82 0
4 -5 -82 0
4 -5 -46 0
-4 46 82 0
-4 5 82 0
-4 5 46 0
4 -82 0
4 -46 0
4 -5 0
-5 -46 -82 0
3 -44 -80 0
3 -4 -80 0
3 -4 -44 0
-3 44 80 0
-3 4 80 0
-3 4 44 0
3 -80 0
3 -44 0
3 -4 0
-4 -44 -80 0
2 -42 -81 0
2 -3 -81 0
2 -3 -42 0
-2 42 81 0
-2 3 81 0
-2 3 42 0
2 -81 0
2 -42 0
2 -3 0
-3 -42 -81 0
-1 40 0
-1 2 0
1 -2 -40 0
2 -40 0
-2 40 0
-1 -41 0
1 -41 0
-1 41 0
